r = [
0,33,11,35,38,51,25,22,59,57,39,0
];
p = [
0,14,1,17,12,1,12,14,16,28,2,0
];
e = [
0,7,8,7,17,14,20,18,9,6,17,0
];
d = [
0,65,73,116,104,105,85,106,122,100,113,130
];
d_bar = [
0,72,74,125,110,106,91,113,130,114,114,130
];
w = [
0,1,8,0.777777778,2.833333333,14,3.333333333,2.571428571,1.125,0.428571429,17,0
];
